Version identifier: 22.1.1.0 | 2022-11-28 | 9160aff4d
CPXPARAM_Threads                                 8
CPXPARAM_Emphasis_MIP                            5
CPXPARAM_TimeLimit                               3600
CPXPARAM_MIP_Tolerances_MIPGap                   0.029999999999999999
Tried aggregator 3 times.
MIP Presolve eliminated 78 rows and 35 columns.
MIP Presolve added 2 rows and 2 columns.
Aggregator did 23 substitutions.
Reduced MIP has 91 rows, 77 columns, and 309 nonzeros.
Reduced MIP has 54 binaries, 23 generals, 0 SOSs, and 0 indicators.
Presolve time = 0.02 sec. (0.54 ticks)
Probing time = 0.00 sec. (0.10 ticks)
Tried aggregator 1 time.
Detecting symmetries...
MIP Presolve eliminated 2 rows and 2 columns.
MIP Presolve added 2 rows and 2 columns.
Reduced MIP has 91 rows, 77 columns, and 309 nonzeros.
Reduced MIP has 54 binaries, 23 generals, 0 SOSs, and 0 indicators.
Presolve time = 0.00 sec. (0.20 ticks)
Probing time = 0.00 sec. (0.11 ticks)
Clique table members: 65.
MIP emphasis: heuristic.
MIP search method: dynamic search.
Parallel mode: deterministic, using up to 8 threads.
Root relaxation solution time = 0.00 sec. (0.29 ticks)

        Nodes                                         Cuts/
   Node  Left     Objective  IInf  Best Integer    Best Bound    ItCnt     Gap

*     0     0      integral     0      163.0000      163.0000       48    0.00%
Elapsed time = 0.06 sec. (1.86 ticks, tree = 0.00 MB, solutions = 1)
Version identifier: 22.1.1.0 | 2022-11-28 | 9160aff4d
CPXPARAM_Threads                                 8
CPXPARAM_Emphasis_MIP                            5
CPXPARAM_TimeLimit                               3600
CPXPARAM_MIP_Tolerances_MIPGap                   0.029999999999999999
Tried aggregator 3 times.
MIP Presolve eliminated 134 rows and 75 columns.
MIP Presolve added 1 rows and 1 columns.
MIP Presolve modified 6 coefficients.
Aggregator did 30 substitutions.
Reduced MIP has 131 rows, 107 columns, and 446 nonzeros.
Reduced MIP has 74 binaries, 33 generals, 0 SOSs, and 0 indicators.
Presolve time = 0.01 sec. (1.00 ticks)
Found incumbent of value 290.000000 after 0.01 sec. (1.89 ticks)
Probing time = 0.00 sec. (0.31 ticks)
Tried aggregator 1 time.
Detecting symmetries...
MIP Presolve eliminated 1 rows and 1 columns.
MIP Presolve added 1 rows and 1 columns.
Reduced MIP has 131 rows, 107 columns, and 446 nonzeros.
Reduced MIP has 74 binaries, 33 generals, 0 SOSs, and 0 indicators.
Presolve time = 0.00 sec. (0.29 ticks)
Probing time = 0.00 sec. (0.31 ticks)
Clique table members: 300.
MIP emphasis: heuristic.
MIP search method: dynamic search.
Parallel mode: deterministic, using up to 8 threads.
Root relaxation solution time = 0.00 sec. (0.38 ticks)

        Nodes                                         Cuts/
   Node  Left     Objective  IInf  Best Integer    Best Bound    ItCnt     Gap

*     0+    0                          290.0000        0.0000           100.00%
*     0     0      integral     0      163.0000      163.0000       41    0.00%
Elapsed time = 0.02 sec. (3.48 ticks, tree = 0.00 MB, solutions = 2)

Root node processing (before b&c):
  Real time             =    0.06 sec. (1.86 ticks)
Parallel b&c, 8 threads:
  Real time             =    0.00 sec. (0.00 ticks)
  Sync time (average)   =    0.00 sec.
  Wait time (average)   =    0.00 sec.
                          ------------
Total (root+branch&cut) =    0.06 sec. (1.86 ticks)

Root node processing (before b&c):
  Real time             =    0.02 sec. (3.49 ticks)
Parallel b&c, 8 threads:
  Real time             =    0.00 sec. (0.00 ticks)
  Sync time (average)   =    0.00 sec.
  Wait time (average)   =    0.00 sec.
                          ------------
Total (root+branch&cut) =    0.02 sec. (3.49 ticks)
Version identifier: 22.1.1.0 | 2022-11-28 | 9160aff4d
CPXPARAM_Threads                                 8
CPXPARAM_Emphasis_MIP                            5
CPXPARAM_TimeLimit                               3600
CPXPARAM_MIP_Tolerances_MIPGap                   0.029999999999999999
Tried aggregator 3 times.
MIP Presolve eliminated 78 rows and 35 columns.
MIP Presolve added 2 rows and 2 columns.
Aggregator did 23 substitutions.
Reduced MIP has 91 rows, 77 columns, and 309 nonzeros.
Reduced MIP has 54 binaries, 23 generals, 0 SOSs, and 0 indicators.
Presolve time = 0.01 sec. (0.54 ticks)
Probing time = 0.00 sec. (0.10 ticks)
Tried aggregator 1 time.
Detecting symmetries...
MIP Presolve eliminated 2 rows and 2 columns.
MIP Presolve added 2 rows and 2 columns.
Reduced MIP has 91 rows, 77 columns, and 309 nonzeros.
Reduced MIP has 54 binaries, 23 generals, 0 SOSs, and 0 indicators.
Presolve time = 0.00 sec. (0.20 ticks)
Probing time = 0.00 sec. (0.11 ticks)
Clique table members: 65.
MIP emphasis: heuristic.
MIP search method: dynamic search.
Parallel mode: deterministic, using up to 8 threads.
Root relaxation solution time = 0.00 sec. (0.29 ticks)

        Nodes                                         Cuts/
   Node  Left     Objective  IInf  Best Integer    Best Bound    ItCnt     Gap

*     0     0      integral     0      163.0000      163.0000       48    0.00%
Elapsed time = 0.04 sec. (1.86 ticks, tree = 0.00 MB, solutions = 1)
Version identifier: 22.1.1.0 | 2022-11-28 | 9160aff4d
CPXPARAM_Threads                                 8
CPXPARAM_Emphasis_MIP                            5
CPXPARAM_TimeLimit                               3600
CPXPARAM_MIP_Tolerances_MIPGap                   0.029999999999999999
Tried aggregator 3 times.
MIP Presolve eliminated 134 rows and 75 columns.
MIP Presolve added 1 rows and 1 columns.
MIP Presolve modified 6 coefficients.
Aggregator did 30 substitutions.
Reduced MIP has 131 rows, 107 columns, and 446 nonzeros.
Reduced MIP has 74 binaries, 33 generals, 0 SOSs, and 0 indicators.
Presolve time = 0.00 sec. (1.00 ticks)
Found incumbent of value 290.000000 after 0.01 sec. (1.89 ticks)
Probing time = 0.00 sec. (0.31 ticks)
Tried aggregator 1 time.
Detecting symmetries...
MIP Presolve eliminated 1 rows and 1 columns.
MIP Presolve added 1 rows and 1 columns.
Reduced MIP has 131 rows, 107 columns, and 446 nonzeros.
Reduced MIP has 74 binaries, 33 generals, 0 SOSs, and 0 indicators.
Presolve time = 0.00 sec. (0.29 ticks)
Probing time = 0.00 sec. (0.31 ticks)
Clique table members: 300.
MIP emphasis: heuristic.
MIP search method: dynamic search.
Parallel mode: deterministic, using up to 8 threads.
Root relaxation solution time = 0.00 sec. (0.38 ticks)

        Nodes                                         Cuts/
   Node  Left     Objective  IInf  Best Integer    Best Bound    ItCnt     Gap

*     0+    0                          290.0000        0.0000           100.00%
*     0     0      integral     0      163.0000      163.0000       41    0.00%
Elapsed time = 0.01 sec. (3.48 ticks, tree = 0.00 MB, solutions = 2)

Root node processing (before b&c):
  Real time             =    0.01 sec. (3.49 ticks)
Parallel b&c, 8 threads:
  Real time             =    0.00 sec. (0.00 ticks)
  Sync time (average)   =    0.00 sec.
  Wait time (average)   =    0.00 sec.
                          ------------
Total (root+branch&cut) =    0.01 sec. (3.49 ticks)

Root node processing (before b&c):
  Real time             =    0.04 sec. (1.86 ticks)
Parallel b&c, 8 threads:
  Real time             =    0.00 sec. (0.00 ticks)
  Sync time (average)   =    0.00 sec.
  Wait time (average)   =    0.00 sec.
                          ------------
Total (root+branch&cut) =    0.04 sec. (1.86 ticks)
